WARNING: for repeatability, setting FPU to use double precision
============================[ Problem Statistics ]=============================
|                                                                             |
|  Number of variables:            50                                         |
|  Number of clauses:             218                                         |
|  Parse time:                   0.00 s                                       |
|                                                                             |
============================[ Search Statistics ]==============================
| Conflicts |          ORIGINAL         |          LEARNT          | Progress |
|           |    Vars  Clauses Literals |    Limit  Clauses Lit/Cl |          |
===============================================================================
===============================================================================
restarts              : 1
conflicts             : 76             (50000 /sec)
decisions             : 88             (0.00 % random) (57895 /sec)
propagations          : 1118           (735526 /sec)
conflict literals     : 282            (21.23 % deleted)
Memory used           : 20.00 MB
CPU time              : 0.00152 s

UNSATISFIABLE
